;---
; using 8-bit bit-vectors as characters
; check intersection nonemptiness of .Net regexes
; regexA = ^\$?(\d{1,3},?(\d{3},?)*\d{3}(\.\d{0,2})?|\d{1,3}(\.\d{0,2})?|\.(\d{1,2})?)\z
; regexB = ^((([A-Z]|[a-z]|[0-9]|\-|\.)+)@(([A-Z]|[a-z]|[0-9]|\-|\.)+)\.(([A-Z]|[a-z]){2,5}){1,25})+(((([A-Z]|[a-z]|[0-9]|\-|\.)+)@(([A-Z]|[a-z]|[0-9]|\-|\.)+)\.(([A-Z]|[a-z]){2,5}){1,25})+)*\z
;---
(set-info :status unsat)
(set-option :print-success true)
(set-logic QF_BVRE)

(declare-const regexA (RegEx String))
(declare-const regexB (RegEx String))
(declare-const x String)

(assert (= regexA (re.++ (str.to_re "")(re.++ (re.opt (re.range "$" "$"))(re.++ (re.union (re.++ ((_ re.loop 1 3) (re.range "0" "9"))(re.++ (re.opt (re.range "," ","))(re.++ (re.* (re.++ ((_ re.loop 3 3) (re.range "0" "9")) (re.opt (re.range "," ","))))(re.++ ((_ re.loop 3 3) (re.range "0" "9")) (re.opt (re.++ (re.range "." ".") ((_ re.loop 0 2) (re.range "0" "9"))))))))(re.union (re.++ ((_ re.loop 1 3) (re.range "0" "9")) (re.opt (re.++ (re.range "." ".") ((_ re.loop 0 2) (re.range "0" "9"))))) (re.++ (re.range "." ".") (re.opt ((_ re.loop 1 2) (re.range "0" "9")))))) (str.to_re ""))))))

(assert (= regexB (re.++ (str.to_re "")(re.++ (re.+ (re.++ (re.+ (re.union (re.range "-" ".")(re.union (re.range "0" "9")(re.union (re.range "A" "Z") (re.range "a" "z")))))(re.++ (re.range "@" "@")(re.++ (re.+ (re.union (re.range "-" ".")(re.union (re.range "0" "9")(re.union (re.range "A" "Z") (re.range "a" "z")))))(re.++ (re.range "." ".") ((_ re.loop 1 25) ((_ re.loop 2 5) (re.union (re.range "A" "Z") (re.range "a" "z")))))))))(re.++ (re.* (re.+ (re.++ (re.+ (re.union (re.range "-" ".")(re.union (re.range "0" "9")(re.union (re.range "A" "Z") (re.range "a" "z")))))(re.++ (re.range "@" "@")(re.++ (re.+ (re.union (re.range "-" ".")(re.union (re.range "0" "9")(re.union (re.range "A" "Z") (re.range "a" "z")))))(re.++ (re.range "." ".") ((_ re.loop 1 25) ((_ re.loop 2 5) (re.union (re.range "A" "Z") (re.range "a" "z")))))))))) (str.to_re ""))))))

;check that the intersection is nonempty, contains some x
(assert (str.in_re x regexA))
(assert (str.in_re x regexB))
(check-sat)
